(set-logic HORN)
(set-info :source |
    Benchmark: C_VC
    Output by Princess (http://www.philipp.ruemmer.org/princess.shtml)
|)
(set-info :status sat)
;===============================================================================
; Encoding of Heap sorts and operations
;-------------------------------------------------------------------------------
(define-sort Addr() Int)
(declare-datatypes ((AddrRange 0))
                   (((AddrRange (AddrRangeStart Addr) (AddrRangeSize Int)))))

(declare-datatypes ((HeapObject 0))
                   (((O_Int (getInt Int)) (O_UInt (getUInt Int)) (O_Addr (getAddr Addr)) (defObj))))
(declare-datatypes ((BatchAllocResHeap 0) (AllocResHeap 0) (Heap 0))
                   (((BatchAllocResHeap   (newBatchHeap Heap) (newAddrRange AddrRange)))
                   ((AllocResHeap   (newHeap Heap) (newAddr Addr)))
                    ((HeapCtor (HeapSize Int)
                               (HeapContents (Array Addr HeapObject))))))
(define-fun nullAddr  () Addr 0)
(define-fun validHeap     ((h Heap) (p Addr)) Bool
  (and (>= (HeapSize h) p) (> p 0)))
(define-fun emptyHeap () Heap (
  HeapCtor 0 (( as const (Array Addr HeapObject)) defObj)))
(define-fun readHeap ((h Heap) (p Addr)) HeapObject
  (ite (validHeap h p)
       (select (HeapContents h) p)
       defObj))
(define-fun writeHeap ((h Heap) (p Addr) (o HeapObject)) Heap
  (ite (validHeap h p)
       (HeapCtor (HeapSize h) (store (HeapContents h) p o))
       h))
(define-fun allocHeap   ((h Heap) (o HeapObject)) AllocResHeap
  (AllocResHeap (HeapCtor (+ 1 (HeapSize h))
                    (store (HeapContents h) (+ 1 (HeapSize h)) o))
          (+ 1 (HeapSize h))))
(define-fun Heap-eq     ((h1 Heap) (h2 Heap)) Bool
  (forall ((p Addr))
          (and (= (validHeap h1 p) (validHeap h2 p))
               (= (readHeap h1 p) (readHeap h2 p)))))
(define-fun nthAddrRange((ar AddrRange) (n Int)) Addr
  (ite (and (>= n 0) (< n (AddrRangeSize ar)))
       (+ (AddrRangeStart ar) n)
       nullAddr))
(define-fun withinHeap ((ar AddrRange ) (p Addr)) Bool
  (and (>= p (AddrRangeStart ar)) (< p (+ (AddrRangeStart ar) (AddrRangeSize ar)))))

(declare-fun batchAllocHeap     (Heap Heap HeapObject Int Int) Bool)
(declare-fun batchAllocPostHeap (Heap Heap HeapObject Int) Bool)

(assert (forall ((h1 Heap) (h2 Heap) (o HeapObject) (n1 Int) (n2 Int))
                (=> (and (> n2 0) (batchAllocHeap h1 h2 o n1 n2))
                   (batchAllocHeap h1 (newHeap (allocHeap h2 o)) o n1 (- n2 1)))))
(assert (forall ((h1 Heap) (h2 Heap) (o HeapObject) (n1 Int) (n2 Int))
                (=> (and (<= n2 0) (batchAllocHeap h1 h2 o n1 n2))
                   (batchAllocPostHeap h1 h2 o n1))))

(declare-fun batchWriteHeap     (Heap Heap Addr Addr HeapObject Int Int) Bool)
(declare-fun batchWritePostHeap (Heap Heap Addr HeapObject Int) Bool)

(assert (forall ((h1 Heap) (h2 Heap) (a1 Addr) (a2 Addr) (o HeapObject) (n1 Int) (n2 Int))
                (=> (and (> n2 0) (batchWriteHeap h1 h2 a1 a2 o n1 n2))
                   (batchWriteHeap h1 (writeHeap h2 a2 o) a1 (+ a2 1) o n1 (- n2 1)))))
(assert (forall ((h1 Heap) (h2 Heap) (a1 Addr) (a2 Addr) (o HeapObject) (n1 Int) (n2 Int))
                (=> (and (<= n2 0) (batchWriteHeap h1 h2 a1 a2 o n1 n2))
                   (batchWritePostHeap h1 h2 a1 o n1))))

;===============================================================================
(declare-fun inv_main2 (Heap Int) Bool)
(declare-fun inv_main20 (Heap Int AddrRange AddrRange Int Int Int Int Int Int) Bool)
(declare-fun inv_main22 (Heap Int AddrRange AddrRange Int Int Int Int Int Int) Bool)
(declare-fun inv_main35 (Heap Int AddrRange AddrRange Int Int Int Int Int Int) Bool)
(declare-fun inv_main43 (Heap Int AddrRange AddrRange Int Int Int Int Int Int) Bool)
(declare-fun inv_main44 (Heap Int AddrRange AddrRange Int Int Int Int Int Int Int) Bool)
(declare-fun inv_main45 (Heap Int AddrRange AddrRange Int Int Int Int Int Int Int) Bool)
(declare-fun inv_main47 (Heap Int AddrRange AddrRange Int Int Int Int Int Int Int) Bool)
(declare-fun inv_main48 (Heap Int AddrRange AddrRange Int Int Int Int Int Int Int) Bool)
(declare-fun inv_main53 (Heap Int AddrRange AddrRange Int Int Int Int Int Int) Bool)
(declare-fun inv_main55 (Heap Int AddrRange AddrRange Int Int Int Int Int Int) Bool)
(declare-fun inv_main57 (Heap Int AddrRange AddrRange Int Int Int Int Int Int Int) Bool)
(assert (inv_main2 emptyHeap 0))
(assert (forall ((var0 Int) (var1 Int) (var2 Int) (var3 Int) (var4 Int) (var5 Int) (var6 Int) (var7 AddrRange) (var8 AddrRange) (var9 Int) (var10 Heap)) (or (not (and (and (inv_main45 var10 var9 var8 var7 var6 var5 var4 var3 var2 var1 var0) (is-O_Int (readHeap var10 (nthAddrRange var8 var2)))) (is-O_Int (readHeap var10 (nthAddrRange var8 var2))))) (inv_main43 (writeHeap var10 (nthAddrRange var8 var2) (O_Int var0)) var9 var8 var7 var6 var5 var4 var3 var2 var1))))
(assert (forall ((var0 Int) (var1 Int) (var2 Int) (var3 Int) (var4 Int) (var5 Int) (var6 AddrRange) (var7 AddrRange) (var8 Int) (var9 Heap)) (or (not (and (inv_main55 var9 var8 var7 var6 var5 var4 var3 var2 var1 var0) (is-O_Int (readHeap var9 (nthAddrRange var7 var5))))) (inv_main57 var9 var8 var7 var6 var5 var4 var3 var2 var1 var0 (+ var3 (getInt (readHeap var9 (nthAddrRange var7 var5))))))))
(assert (forall ((var0 Int) (var1 Int) (var2 Int) (var3 Int) (var4 Int) (var5 Int) (var6 AddrRange) (var7 AddrRange) (var8 Heap) (var9 Int) (var10 Int) (var11 Int) (var12 Int) (var13 Int) (var14 Int) (var15 Int) (var16 Int) (var17 Int) (var18 AddrRange) (var19 AddrRange) (var20 Int) (var21 Heap)) (or (not (and (and (and (and (and (and (and (and (and (and (and (and (and (and (inv_main48 var21 var20 var19 var18 var17 var16 var15 var14 var13 var12 var11) (= var0 var12)) (= var1 var13)) (= var2 var14)) (= var3 var15)) (= var4 var16)) (= var5 var17)) (= var6 var18)) (= var7 var19)) (= var10 var20)) (= var8 (writeHeap var21 (nthAddrRange var18 var13) (O_Int var11)))) (is-O_Int (readHeap var21 (nthAddrRange var18 var13)))) (is-O_Int (readHeap var21 (nthAddrRange var18 var13)))) (= var9 0)) (not (<= 0 (+ var10 (* (- 1) 1)))))) (inv_main53 var8 var10 var7 var6 0 var4 var3 var9 var1 var0))))
(assert (forall ((var0 Int) (var1 Int) (var2 Int) (var3 Int) (var4 Int) (var5 Int) (var6 AddrRange) (var7 AddrRange) (var8 Heap) (var9 Int) (var10 Int) (var11 Int) (var12 Int) (var13 Int) (var14 Int) (var15 Int) (var16 Int) (var17 Int) (var18 AddrRange) (var19 AddrRange) (var20 Int) (var21 Heap)) (or (not (and (and (and (and (and (and (and (and (and (and (and (and (and (inv_main57 var21 var20 var19 var18 var17 var16 var15 var14 var13 var12 var11) (= var0 (+ var11 (getInt (readHeap var21 (nthAddrRange var18 var17)))))) (= var1 var12)) (= var2 var13)) (= var3 var14)) (= var4 var15)) (= var5 var16)) (= var9 var17)) (= var6 var18)) (= var7 var19)) (= var10 var20)) (= var8 var21)) (is-O_Int (readHeap var21 (nthAddrRange var18 var17)))) (not (<= 0 (+ (+ (* (- 1) (+ var9 1)) var10) (* (- 1) 1)))))) (inv_main53 var8 var10 var7 var6 (+ var9 1) var5 var0 var3 var2 var1))))
(assert (forall ((var0 Int) (var1 Int) (var2 Int) (var3 Int) (var4 Int) (var5 Int) (var6 Int) (var7 Int) (var8 Int) (var9 AddrRange) (var10 AddrRange) (var11 Int) (var12 Heap) (var13 Int) (var14 Int) (var15 Int) (var16 Int) (var17 Int) (var18 Int) (var19 Int) (var20 Int) (var21 Int) (var22 Int) (var23 Int) (var24 AddrRange) (var25 AddrRange) (var26 AddrRange) (var27 AddrRange) (var28 Int) (var29 Int) (var30 Heap) (var31 Heap) (var32 Int) (var33 Int) (var34 Int) (var35 Int) (var36 Int) (var37 Int) (var38 Int) (var39 Int) (var40 Int) (var41 Int) (var42 AddrRange) (var43 AddrRange) (var44 Int) (var45 Heap)) (or (not (and (and (and (and (and (and (and (and (and (and (and (and (and (and (and (and (and (and (and (and (and (and (and (and (and (and (and (and (and (and (and (and (and (and (and (and (and (and (inv_main48 var45 var44 var43 var42 var41 var40 var39 var38 var37 var36 var35) (= var0 var36)) (= var1 var37)) (= var2 var38)) (= var6 var39)) (= var7 var40)) (= var8 var41)) (= var9 var42)) (= var10 var43)) (= var11 var44)) (= var12 (writeHeap var45 (nthAddrRange var42 var37) (O_Int var35)))) (is-O_Int (readHeap var45 (nthAddrRange var42 var37)))) (is-O_Int (readHeap var45 (nthAddrRange var42 var37)))) (not (= var5 0))) (or (and (<= 0 (+ var3 (* (- 1) 1))) (= var13 1)) (and (not (<= 0 (+ var3 (* (- 1) 1)))) (= var13 0)))) (= var32 var3)) (= var33 var4)) (= var16 var5)) (= var18 var6)) (= var20 var7)) (= var22 var8)) (= var24 var9)) (= var26 var10)) (= var28 var11)) (= var30 var12)) (not (= var13 0))) (or (and (<= 0 (+ (+ (+ (* (- 1) var33) (* (- 1) var32)) var28) (* (- 1) 1))) (= var34 1)) (and (not (<= 0 (+ (+ (+ (* (- 1) var33) (* (- 1) var32)) var28) (* (- 1) 1)))) (= var34 0)))) (= var14 var32)) (= var15 var33)) (= var17 var16)) (= var19 var18)) (= var21 var20)) (= var23 var22)) (= var25 var24)) (= var27 var26)) (= var29 var28)) (= var31 var30)) (<= 0 (+ var33 (* (- 1) var32)))) (not (= var34 0)))) (inv_main35 var31 var29 var27 var25 var23 var21 var19 var17 var15 var14))))
(assert (forall ((var0 Int) (var1 Int) (var2 Int) (var3 Int) (var4 Int) (var5 Int) (var6 Int) (var7 Int) (var8 AddrRange) (var9 AddrRange) (var10 Int) (var11 Heap) (var12 Int) (var13 Int) (var14 Int) (var15 Int) (var16 Int) (var17 Int) (var18 Int) (var19 Int) (var20 Int) (var21 Int) (var22 Int) (var23 AddrRange) (var24 AddrRange) (var25 AddrRange) (var26 AddrRange) (var27 Int) (var28 Int) (var29 Heap) (var30 Heap) (var31 Int) (var32 Int) (var33 Int) (var34 Int) (var35 Int) (var36 Int) (var37 Int) (var38 Int) (var39 Int) (var40 AddrRange) (var41 AddrRange) (var42 Int) (var43 Heap)) (or (not (and (and (and (and (and (and (and (and (and (and (and (and (and (and (and (and (and (and (and (and (and (and (and (and (and (and (and (and (and (and (and (and (and (and (and (and (and (and (inv_main22 var43 var42 var41 var40 var39 var38 var37 var36 var35 var34) (= var0 var34)) (= var1 var35)) (= var4 var36)) (= var5 var37)) (= var6 var38)) (= var7 var39)) (= var8 var40)) (= var9 var41)) (= var10 var42)) (= var11 (writeHeap var43 (nthAddrRange var40 var39) (O_Int (* var38 var39))))) (is-O_Int (readHeap var43 (nthAddrRange var40 var39)))) (is-O_Int (readHeap var43 (nthAddrRange var40 var39)))) (not (<= 0 (+ (+ (* (- 1) (+ var7 1)) var10) (* (- 1) 1))))) (or (and (<= 0 (+ var2 (* (- 1) 1))) (= var12 1)) (and (not (<= 0 (+ var2 (* (- 1) 1)))) (= var12 0)))) (= var31 var2)) (= var32 var3)) (= var15 var4)) (= var17 var5)) (= var19 var6)) (= var21 (+ var7 1))) (= var23 var8)) (= var25 var9)) (= var27 var10)) (= var29 var11)) (not (= var12 0))) (or (and (<= 0 (+ (+ (+ (* (- 1) var32) (* (- 1) var31)) var27) (* (- 1) 1))) (= var33 1)) (and (not (<= 0 (+ (+ (+ (* (- 1) var32) (* (- 1) var31)) var27) (* (- 1) 1)))) (= var33 0)))) (= var13 var31)) (= var14 var32)) (= var16 var15)) (= var18 var17)) (= var20 var19)) (= var22 var21)) (= var24 var23)) (= var26 var25)) (= var28 var27)) (= var30 var29)) (<= 0 (+ var32 (* (- 1) var31)))) (not (= var33 0)))) (inv_main35 var30 var28 var26 var24 var22 var20 var18 var16 var14 var13))))
(assert (forall ((var0 Int) (var1 Heap) (var2 Int) (var3 Int) (var4 Int) (var5 Heap) (var6 AddrRange) (var7 Int) (var8 Int) (var9 Int) (var10 Int) (var11 Int) (var12 AddrRange) (var13 AddrRange) (var14 Int) (var15 Heap) (var16 Int) (var17 Int) (var18 Int) (var19 Int) (var20 Int) (var21 Int) (var22 Int) (var23 Int) (var24 Int) (var25 Int) (var26 Int) (var27 AddrRange) (var28 AddrRange) (var29 AddrRange) (var30 AddrRange) (var31 Int) (var32 Int) (var33 Heap) (var34 Heap) (var35 Int) (var36 Int) (var37 Int) (var38 Int) (var39 Heap)) (or (not (and (and (batchAllocHeapPostHeap emptyHeap var5 (O_Int var4) var3) (batchAllocHeapPostHeap emptyHeap var15 (O_Int var8) var7)) (and (and (and (and (and (and (and (and (and (and (and (and (and (and (and (and (and (and (and (and (and (and (and (and (and (and (and (and (and (and (and (and (and (and (and (and (and (inv_main2 var39 var38) (or (and (<= 0 (+ var0 (* (- 1) 1))) (= var2 1)) (and (not (<= 0 (+ var0 (* (- 1) 1)))) (= var2 0)))) (= var3 var0)) (= var1 var39)) (not (= var2 0))) (= var6 (AddrRange (ite (<= 0 (+ var3 (- 1))) (+ (HeapSize emptyHeap) 1) (HeapSize emptyHeap)) var3))) (= var7 var3)) true) (= var12 (AddrRange (ite (<= 0 (+ var7 (- 1))) (+ (HeapSize emptyHeap) 1) (HeapSize emptyHeap)) var7))) (= var13 var6)) (= var14 var7)) true) (not (<= 0 (+ var14 (* (- 1) 1))))) (or (and (<= 0 (+ var9 (* (- 1) 1))) (= var16 1)) (and (not (<= 0 (+ var9 (* (- 1) 1)))) (= var16 0)))) (= var35 var9)) (= var36 var10)) (= var19 var11)) (= var21 0)) (= var23 (* (- 1) 1))) (= var25 0)) (= var27 var12)) (= var29 var13)) (= var31 var14)) (= var33 var15)) (not (= var16 0))) (or (and (<= 0 (+ (+ (+ (* (- 1) var36) (* (- 1) var35)) var31) (* (- 1) 1))) (= var37 1)) (and (not (<= 0 (+ (+ (+ (* (- 1) var36) (* (- 1) var35)) var31) (* (- 1) 1)))) (= var37 0)))) (= var17 var35)) (= var18 var36)) (= var20 var19)) (= var22 var21)) (= var24 var23)) (= var26 var25)) (= var28 var27)) (= var30 var29)) (= var32 var31)) (= var34 var33)) (<= 0 (+ var36 (* (- 1) var35)))) (not (= var37 0))))) (inv_main35 var34 var32 var30 var28 var26 var24 var22 var20 var18 var17))))
(assert (forall ((var0 Int) (var1 Heap) (var2 Int) (var3 Int) (var4 Int) (var5 Heap) (var6 AddrRange) (var7 Int) (var8 Int) (var9 Int) (var10 Int) (var11 Int) (var12 AddrRange) (var13 AddrRange) (var14 Int) (var15 Heap) (var16 Int) (var17 Int) (var18 Int) (var19 Int) (var20 Int) (var21 Int) (var22 Int) (var23 Int) (var24 Int) (var25 Int) (var26 Int) (var27 AddrRange) (var28 AddrRange) (var29 AddrRange) (var30 AddrRange) (var31 Int) (var32 Int) (var33 Heap) (var34 Heap) (var35 Int) (var36 Int) (var37 Int) (var38 Int) (var39 Heap)) (or (not (and (and (and (and (and (and (and (and (and (and (and (and (and (and (and (and (and (and (and (and (and (and (and (and (and (and (and (and (and (and (and (and (and (and (and (and (and (inv_main2 var39 var38) (or (and (<= 0 (+ var0 (* (- 1) 1))) (= var2 1)) (and (not (<= 0 (+ var0 (* (- 1) 1)))) (= var2 0)))) (= var3 var0)) (= var1 var39)) (not (= var2 0))) (= var6 (AddrRange (ite (<= 0 (+ var3 (- 1))) (+ (HeapSize emptyHeap) 1) (HeapSize emptyHeap)) var3))) (= var7 var3)) true) (= var12 (AddrRange (ite (<= 0 (+ var7 (- 1))) (+ (HeapSize emptyHeap) 1) (HeapSize emptyHeap)) var7))) (= var13 var6)) (= var14 var7)) true) (not (<= 0 (+ var14 (* (- 1) 1))))) (or (and (<= 0 (+ var9 (* (- 1) 1))) (= var16 1)) (and (not (<= 0 (+ var9 (* (- 1) 1)))) (= var16 0)))) (= var35 var9)) (= var36 var10)) (= var19 var11)) (= var21 0)) (= var23 (* (- 1) 1))) (= var25 0)) (= var27 var12)) (= var29 var13)) (= var31 var14)) (= var33 var15)) (not (= var16 0))) (or (and (<= 0 (+ (+ (+ (* (- 1) var36) (* (- 1) var35)) var31) (* (- 1) 1))) (= var37 1)) (and (not (<= 0 (+ (+ (+ (* (- 1) var36) (* (- 1) var35)) var31) (* (- 1) 1)))) (= var37 0)))) (= var17 var35)) (= var18 var36)) (= var20 var19)) (= var22 var21)) (= var24 var23)) (= var26 var25)) (= var28 var27)) (= var30 var29)) (= var32 var31)) (= var34 var33)) (<= 0 (+ var36 (* (- 1) var35)))) (not (= var37 0)))) (batchAllocHeap emptyHeap emptyHeap (O_Int var4) var3 var3))))
(assert (forall ((var0 Int) (var1 Heap) (var2 Int) (var3 Int) (var4 Int) (var5 Heap) (var6 AddrRange) (var7 Int) (var8 Int) (var9 Int) (var10 Int) (var11 Int) (var12 AddrRange) (var13 AddrRange) (var14 Int) (var15 Heap) (var16 Int) (var17 Int) (var18 Int) (var19 Int) (var20 Int) (var21 Int) (var22 Int) (var23 Int) (var24 Int) (var25 Int) (var26 Int) (var27 AddrRange) (var28 AddrRange) (var29 AddrRange) (var30 AddrRange) (var31 Int) (var32 Int) (var33 Heap) (var34 Heap) (var35 Int) (var36 Int) (var37 Int) (var38 Int) (var39 Heap)) (or (not (and (and (and (and (and (and (and (and (and (and (and (and (and (and (and (and (and (and (and (and (and (and (and (and (and (and (and (and (and (and (and (and (and (and (and (and (and (inv_main2 var39 var38) (or (and (<= 0 (+ var0 (* (- 1) 1))) (= var2 1)) (and (not (<= 0 (+ var0 (* (- 1) 1)))) (= var2 0)))) (= var3 var0)) (= var1 var39)) (not (= var2 0))) (= var6 (AddrRange (ite (<= 0 (+ var3 (- 1))) (+ (HeapSize emptyHeap) 1) (HeapSize emptyHeap)) var3))) (= var7 var3)) true) (= var12 (AddrRange (ite (<= 0 (+ var7 (- 1))) (+ (HeapSize emptyHeap) 1) (HeapSize emptyHeap)) var7))) (= var13 var6)) (= var14 var7)) true) (not (<= 0 (+ var14 (* (- 1) 1))))) (or (and (<= 0 (+ var9 (* (- 1) 1))) (= var16 1)) (and (not (<= 0 (+ var9 (* (- 1) 1)))) (= var16 0)))) (= var35 var9)) (= var36 var10)) (= var19 var11)) (= var21 0)) (= var23 (* (- 1) 1))) (= var25 0)) (= var27 var12)) (= var29 var13)) (= var31 var14)) (= var33 var15)) (not (= var16 0))) (or (and (<= 0 (+ (+ (+ (* (- 1) var36) (* (- 1) var35)) var31) (* (- 1) 1))) (= var37 1)) (and (not (<= 0 (+ (+ (+ (* (- 1) var36) (* (- 1) var35)) var31) (* (- 1) 1)))) (= var37 0)))) (= var17 var35)) (= var18 var36)) (= var20 var19)) (= var22 var21)) (= var24 var23)) (= var26 var25)) (= var28 var27)) (= var30 var29)) (= var32 var31)) (= var34 var33)) (<= 0 (+ var36 (* (- 1) var35)))) (not (= var37 0)))) (batchAllocHeap emptyHeap emptyHeap (O_Int var8) var7 var7))))
(assert (forall ((var0 Int) (var1 Int) (var2 Int) (var3 Int) (var4 Int) (var5 Int) (var6 AddrRange) (var7 AddrRange) (var8 Heap) (var9 Int) (var10 Int) (var11 Int) (var12 Int) (var13 Int) (var14 Int) (var15 Int) (var16 Int) (var17 Int) (var18 AddrRange) (var19 AddrRange) (var20 Int) (var21 Heap)) (or (not (and (and (and (and (and (and (and (and (and (and (and (and (and (and (inv_main48 var21 var20 var19 var18 var17 var16 var15 var14 var13 var12 var11) (= var0 var12)) (= var1 var13)) (= var2 var14)) (= var3 var15)) (= var4 var16)) (= var5 var17)) (= var6 var18)) (= var7 var19)) (= var10 var20)) (= var8 (writeHeap var21 (nthAddrRange var18 var13) (O_Int var11)))) (is-O_Int (readHeap var21 (nthAddrRange var18 var13)))) (is-O_Int (readHeap var21 (nthAddrRange var18 var13)))) (= var9 0)) (<= 0 (+ var10 (* (- 1) 1))))) (inv_main55 var8 var10 var7 var6 0 var4 var3 var9 var1 var0))))
(assert (forall ((var0 Int) (var1 Int) (var2 Int) (var3 Int) (var4 Int) (var5 Int) (var6 AddrRange) (var7 AddrRange) (var8 Heap) (var9 Int) (var10 Int) (var11 Int) (var12 Int) (var13 Int) (var14 Int) (var15 Int) (var16 Int) (var17 Int) (var18 AddrRange) (var19 AddrRange) (var20 Int) (var21 Heap)) (or (not (and (and (and (and (and (and (and (and (and (and (and (and (and (inv_main57 var21 var20 var19 var18 var17 var16 var15 var14 var13 var12 var11) (= var0 (+ var11 (getInt (readHeap var21 (nthAddrRange var18 var17)))))) (= var1 var12)) (= var2 var13)) (= var3 var14)) (= var4 var15)) (= var5 var16)) (= var9 var17)) (= var6 var18)) (= var7 var19)) (= var10 var20)) (= var8 var21)) (is-O_Int (readHeap var21 (nthAddrRange var18 var17)))) (<= 0 (+ (+ (* (- 1) (+ var9 1)) var10) (* (- 1) 1))))) (inv_main55 var8 var10 var7 var6 (+ var9 1) var5 var0 var3 var2 var1))))
(assert (forall ((var0 Int) (var1 Int) (var2 Int) (var3 Int) (var4 Int) (var5 Int) (var6 AddrRange) (var7 AddrRange) (var8 Int) (var9 Heap)) (or (not (and (inv_main35 var9 var8 var7 var6 var5 var4 var3 var2 var1 var0) (is-O_Int (readHeap var9 (nthAddrRange var7 (+ var1 (* (- 1) var0))))))) (inv_main44 var9 var8 var7 var6 var5 var4 var3 var2 var1 var0 (getInt (readHeap var9 (nthAddrRange var7 (+ var1 (* (- 1) var0)))))))))
(assert (forall ((var0 Int) (var1 Int) (var2 Int) (var3 Int) (var4 Int) (var5 Int) (var6 AddrRange) (var7 AddrRange) (var8 Int) (var9 Heap)) (or (not (and (and (inv_main20 var9 var8 var7 var6 var5 var4 var3 var2 var1 var0) (is-O_Int (readHeap var9 (nthAddrRange var7 var5)))) (is-O_Int (readHeap var9 (nthAddrRange var7 var5))))) (inv_main22 (writeHeap var9 (nthAddrRange var7 var5) (O_Int (* (* var4 var5) var4))) var8 var7 var6 var5 var4 var3 var2 var1 var0))))
(assert (forall ((var0 Int) (var1 Int) (var2 Int) (var3 Int) (var4 Int) (var5 Int) (var6 Int) (var7 AddrRange) (var8 AddrRange) (var9 Int) (var10 Heap)) (or (not (and (inv_main47 var10 var9 var8 var7 var6 var5 var4 var3 var2 var1 var0) (is-O_Int (readHeap var10 (nthAddrRange var7 (+ var2 var1)))))) (inv_main48 var10 var9 var8 var7 var6 var5 var4 var3 var2 var1 (+ var0 (getInt (readHeap var10 (nthAddrRange var7 (+ var2 var1)))))))))
(assert (forall ((var0 Int) (var1 Int) (var2 Int) (var3 Int) (var4 Int) (var5 Int) (var6 AddrRange) (var7 AddrRange) (var8 Int) (var9 Heap)) (or (not (and (inv_main43 var9 var8 var7 var6 var5 var4 var3 var2 var1 var0) (is-O_Int (readHeap var9 (nthAddrRange var6 (+ var1 (* (- 1) var0))))))) (inv_main47 var9 var8 var7 var6 var5 var4 var3 var2 var1 var0 (getInt (readHeap var9 (nthAddrRange var6 (+ var1 (* (- 1) var0)))))))))
(assert (forall ((var0 Int) (var1 Int) (var2 Int) (var3 Int) (var4 Int) (var5 AddrRange) (var6 AddrRange) (var7 Heap) (var8 Int) (var9 Int) (var10 Int) (var11 Int) (var12 Int) (var13 Int) (var14 Int) (var15 Int) (var16 AddrRange) (var17 AddrRange) (var18 Int) (var19 Heap)) (or (not (and (and (and (and (and (and (and (and (and (and (and (and (and (inv_main22 var19 var18 var17 var16 var15 var14 var13 var12 var11 var10) (= var0 var10)) (= var1 var11)) (= var2 var12)) (= var3 var13)) (= var4 var14)) (= var8 var15)) (= var5 var16)) (= var6 var17)) (= var9 var18)) (= var7 (writeHeap var19 (nthAddrRange var16 var15) (O_Int (* var14 var15))))) (is-O_Int (readHeap var19 (nthAddrRange var16 var15)))) (is-O_Int (readHeap var19 (nthAddrRange var16 var15)))) (<= 0 (+ (+ (* (- 1) (+ var8 1)) var9) (* (- 1) 1))))) (inv_main20 var7 var9 var6 var5 (+ var8 1) var4 var3 var2 var1 var0))))
(assert (forall ((var0 Int) (var1 Int) (var2 Int) (var3 Int) (var4 Heap) (var5 Int) (var6 Int) (var7 Int) (var8 Heap) (var9 AddrRange) (var10 AddrRange) (var11 AddrRange) (var12 Int) (var13 Int) (var14 Heap) (var15 Int) (var16 Int) (var17 Heap)) (or (not (and (and (batchAllocHeapPostHeap emptyHeap var8 (O_Int var7) var6) (batchAllocHeapPostHeap emptyHeap var14 (O_Int var13) var12)) (and (and (and (and (and (and (and (and (and (and (and (and (inv_main2 var17 var16) (or (and (<= 0 (+ var3 (* (- 1) 1))) (= var5 1)) (and (not (<= 0 (+ var3 (* (- 1) 1)))) (= var5 0)))) (= var6 var3)) (= var4 var17)) (not (= var5 0))) (= var10 (AddrRange (ite (<= 0 (+ var6 (- 1))) (+ (HeapSize emptyHeap) 1) (HeapSize emptyHeap)) var6))) (= var12 var6)) true) (= var9 (AddrRange (ite (<= 0 (+ var12 (- 1))) (+ (HeapSize emptyHeap) 1) (HeapSize emptyHeap)) var12))) (= var11 var10)) (= var15 var12)) true) (<= 0 (+ var15 (* (- 1) 1)))))) (inv_main20 var14 var15 var11 var9 0 (* (- 1) 1) 0 var2 var1 var0))))
(assert (forall ((var0 Int) (var1 Int) (var2 Int) (var3 Int) (var4 Heap) (var5 Int) (var6 Int) (var7 Int) (var8 Heap) (var9 AddrRange) (var10 AddrRange) (var11 AddrRange) (var12 Int) (var13 Int) (var14 Heap) (var15 Int) (var16 Int) (var17 Heap)) (or (not (and (and (and (and (and (and (and (and (and (and (and (and (inv_main2 var17 var16) (or (and (<= 0 (+ var3 (* (- 1) 1))) (= var5 1)) (and (not (<= 0 (+ var3 (* (- 1) 1)))) (= var5 0)))) (= var6 var3)) (= var4 var17)) (not (= var5 0))) (= var10 (AddrRange (ite (<= 0 (+ var6 (- 1))) (+ (HeapSize emptyHeap) 1) (HeapSize emptyHeap)) var6))) (= var12 var6)) true) (= var9 (AddrRange (ite (<= 0 (+ var12 (- 1))) (+ (HeapSize emptyHeap) 1) (HeapSize emptyHeap)) var12))) (= var11 var10)) (= var15 var12)) true) (<= 0 (+ var15 (* (- 1) 1))))) (batchAllocHeap emptyHeap emptyHeap (O_Int var7) var6 var6))))
(assert (forall ((var0 Int) (var1 Int) (var2 Int) (var3 Int) (var4 Heap) (var5 Int) (var6 Int) (var7 Int) (var8 Heap) (var9 AddrRange) (var10 AddrRange) (var11 AddrRange) (var12 Int) (var13 Int) (var14 Heap) (var15 Int) (var16 Int) (var17 Heap)) (or (not (and (and (and (and (and (and (and (and (and (and (and (and (inv_main2 var17 var16) (or (and (<= 0 (+ var3 (* (- 1) 1))) (= var5 1)) (and (not (<= 0 (+ var3 (* (- 1) 1)))) (= var5 0)))) (= var6 var3)) (= var4 var17)) (not (= var5 0))) (= var10 (AddrRange (ite (<= 0 (+ var6 (- 1))) (+ (HeapSize emptyHeap) 1) (HeapSize emptyHeap)) var6))) (= var12 var6)) true) (= var9 (AddrRange (ite (<= 0 (+ var12 (- 1))) (+ (HeapSize emptyHeap) 1) (HeapSize emptyHeap)) var12))) (= var11 var10)) (= var15 var12)) true) (<= 0 (+ var15 (* (- 1) 1))))) (batchAllocHeap emptyHeap emptyHeap (O_Int var13) var12 var12))))
(assert (forall ((var0 Int) (var1 Int) (var2 Int) (var3 Int) (var4 Int) (var5 Int) (var6 Int) (var7 AddrRange) (var8 AddrRange) (var9 Int) (var10 Heap)) (or (not (and (inv_main44 var10 var9 var8 var7 var6 var5 var4 var3 var2 var1 var0) (is-O_Int (readHeap var10 (nthAddrRange var8 (+ var2 var1)))))) (inv_main45 var10 var9 var8 var7 var6 var5 var4 var3 var2 var1 (+ var0 (getInt (readHeap var10 (nthAddrRange var8 (+ var2 var1)))))))))
(assert (forall ((var0 Int) (var1 Int) (var2 Int) (var3 Int) (var4 Int) (var5 Int) (var6 AddrRange) (var7 AddrRange) (var8 Int) (var9 Heap)) (not (and (inv_main20 var9 var8 var7 var6 var5 var4 var3 var2 var1 var0) (not (is-O_Int (readHeap var9 (nthAddrRange var7 var5))))))))
(assert (forall ((var0 Int) (var1 Int) (var2 Int) (var3 Int) (var4 Int) (var5 Int) (var6 AddrRange) (var7 AddrRange) (var8 Int) (var9 Heap)) (not (and (and (inv_main20 var9 var8 var7 var6 var5 var4 var3 var2 var1 var0) (not (withinHeap var7 (nthAddrRange var7 var5)))) (is-O_Int (readHeap var9 (nthAddrRange var7 var5)))))))
(assert (forall ((var0 Int) (var1 Int) (var2 Int) (var3 Int) (var4 Int) (var5 Int) (var6 AddrRange) (var7 AddrRange) (var8 Int) (var9 Heap)) (not (and (and (inv_main20 var9 var8 var7 var6 var5 var4 var3 var2 var1 var0) (not (is-O_Int (readHeap var9 (nthAddrRange var7 var5))))) (is-O_Int (readHeap var9 (nthAddrRange var7 var5)))))))
(assert (forall ((var0 Int) (var1 Int) (var2 Int) (var3 Int) (var4 Int) (var5 Int) (var6 AddrRange) (var7 AddrRange) (var8 Int) (var9 Heap)) (not (and (inv_main22 var9 var8 var7 var6 var5 var4 var3 var2 var1 var0) (not (is-O_Int (readHeap var9 (nthAddrRange var6 var5))))))))
(assert (forall ((var0 Int) (var1 Int) (var2 Int) (var3 Int) (var4 Int) (var5 Int) (var6 AddrRange) (var7 AddrRange) (var8 Int) (var9 Heap)) (not (and (and (inv_main22 var9 var8 var7 var6 var5 var4 var3 var2 var1 var0) (not (withinHeap var6 (nthAddrRange var6 var5)))) (is-O_Int (readHeap var9 (nthAddrRange var6 var5)))))))
(assert (forall ((var0 Int) (var1 Int) (var2 Int) (var3 Int) (var4 Int) (var5 Int) (var6 AddrRange) (var7 AddrRange) (var8 Int) (var9 Heap)) (not (and (and (inv_main22 var9 var8 var7 var6 var5 var4 var3 var2 var1 var0) (not (is-O_Int (readHeap var9 (nthAddrRange var6 var5))))) (is-O_Int (readHeap var9 (nthAddrRange var6 var5)))))))
(assert (forall ((var0 Int) (var1 Int) (var2 Int) (var3 Int) (var4 Int) (var5 Int) (var6 AddrRange) (var7 AddrRange) (var8 Int) (var9 Heap)) (not (and (inv_main35 var9 var8 var7 var6 var5 var4 var3 var2 var1 var0) (not (is-O_Int (readHeap var9 (nthAddrRange var7 (+ var1 (* (- 1) var0))))))))))
(assert (forall ((var0 Int) (var1 Int) (var2 Int) (var3 Int) (var4 Int) (var5 Int) (var6 AddrRange) (var7 AddrRange) (var8 Int) (var9 Heap)) (not (and (and (inv_main35 var9 var8 var7 var6 var5 var4 var3 var2 var1 var0) (not (withinHeap var7 (nthAddrRange var7 (+ var1 (* (- 1) var0)))))) (is-O_Int (readHeap var9 (nthAddrRange var7 (+ var1 (* (- 1) var0)))))))))
(assert (forall ((var0 Int) (var1 Int) (var2 Int) (var3 Int) (var4 Int) (var5 Int) (var6 Int) (var7 AddrRange) (var8 AddrRange) (var9 Int) (var10 Heap)) (not (and (inv_main44 var10 var9 var8 var7 var6 var5 var4 var3 var2 var1 var0) (not (is-O_Int (readHeap var10 (nthAddrRange var8 (+ var2 var1)))))))))
(assert (forall ((var0 Int) (var1 Int) (var2 Int) (var3 Int) (var4 Int) (var5 Int) (var6 Int) (var7 AddrRange) (var8 AddrRange) (var9 Int) (var10 Heap)) (not (and (and (inv_main44 var10 var9 var8 var7 var6 var5 var4 var3 var2 var1 var0) (not (withinHeap var8 (nthAddrRange var8 (+ var2 var1))))) (is-O_Int (readHeap var10 (nthAddrRange var8 (+ var2 var1))))))))
(assert (forall ((var0 Int) (var1 Int) (var2 Int) (var3 Int) (var4 Int) (var5 Int) (var6 Int) (var7 AddrRange) (var8 AddrRange) (var9 Int) (var10 Heap)) (not (and (inv_main45 var10 var9 var8 var7 var6 var5 var4 var3 var2 var1 var0) (not (is-O_Int (readHeap var10 (nthAddrRange var8 var2))))))))
(assert (forall ((var0 Int) (var1 Int) (var2 Int) (var3 Int) (var4 Int) (var5 Int) (var6 Int) (var7 AddrRange) (var8 AddrRange) (var9 Int) (var10 Heap)) (not (and (and (inv_main45 var10 var9 var8 var7 var6 var5 var4 var3 var2 var1 var0) (not (withinHeap var8 (nthAddrRange var8 var2)))) (is-O_Int (readHeap var10 (nthAddrRange var8 var2)))))))
(assert (forall ((var0 Int) (var1 Int) (var2 Int) (var3 Int) (var4 Int) (var5 Int) (var6 Int) (var7 AddrRange) (var8 AddrRange) (var9 Int) (var10 Heap)) (not (and (and (inv_main45 var10 var9 var8 var7 var6 var5 var4 var3 var2 var1 var0) (not (is-O_Int (readHeap var10 (nthAddrRange var8 var2))))) (is-O_Int (readHeap var10 (nthAddrRange var8 var2)))))))
(assert (forall ((var0 Int) (var1 Int) (var2 Int) (var3 Int) (var4 Int) (var5 Int) (var6 AddrRange) (var7 AddrRange) (var8 Int) (var9 Heap)) (not (and (inv_main43 var9 var8 var7 var6 var5 var4 var3 var2 var1 var0) (not (is-O_Int (readHeap var9 (nthAddrRange var6 (+ var1 (* (- 1) var0))))))))))
(assert (forall ((var0 Int) (var1 Int) (var2 Int) (var3 Int) (var4 Int) (var5 Int) (var6 AddrRange) (var7 AddrRange) (var8 Int) (var9 Heap)) (not (and (and (inv_main43 var9 var8 var7 var6 var5 var4 var3 var2 var1 var0) (not (withinHeap var6 (nthAddrRange var6 (+ var1 (* (- 1) var0)))))) (is-O_Int (readHeap var9 (nthAddrRange var6 (+ var1 (* (- 1) var0)))))))))
(assert (forall ((var0 Int) (var1 Int) (var2 Int) (var3 Int) (var4 Int) (var5 Int) (var6 Int) (var7 AddrRange) (var8 AddrRange) (var9 Int) (var10 Heap)) (not (and (inv_main47 var10 var9 var8 var7 var6 var5 var4 var3 var2 var1 var0) (not (is-O_Int (readHeap var10 (nthAddrRange var7 (+ var2 var1)))))))))
(assert (forall ((var0 Int) (var1 Int) (var2 Int) (var3 Int) (var4 Int) (var5 Int) (var6 Int) (var7 AddrRange) (var8 AddrRange) (var9 Int) (var10 Heap)) (not (and (and (inv_main47 var10 var9 var8 var7 var6 var5 var4 var3 var2 var1 var0) (not (withinHeap var7 (nthAddrRange var7 (+ var2 var1))))) (is-O_Int (readHeap var10 (nthAddrRange var7 (+ var2 var1))))))))
(assert (forall ((var0 Int) (var1 Int) (var2 Int) (var3 Int) (var4 Int) (var5 Int) (var6 Int) (var7 AddrRange) (var8 AddrRange) (var9 Int) (var10 Heap)) (not (and (inv_main48 var10 var9 var8 var7 var6 var5 var4 var3 var2 var1 var0) (not (is-O_Int (readHeap var10 (nthAddrRange var7 var2))))))))
(assert (forall ((var0 Int) (var1 Int) (var2 Int) (var3 Int) (var4 Int) (var5 Int) (var6 Int) (var7 AddrRange) (var8 AddrRange) (var9 Int) (var10 Heap)) (not (and (and (inv_main48 var10 var9 var8 var7 var6 var5 var4 var3 var2 var1 var0) (not (withinHeap var7 (nthAddrRange var7 var2)))) (is-O_Int (readHeap var10 (nthAddrRange var7 var2)))))))
(assert (forall ((var0 Int) (var1 Int) (var2 Int) (var3 Int) (var4 Int) (var5 Int) (var6 Int) (var7 AddrRange) (var8 AddrRange) (var9 Int) (var10 Heap)) (not (and (and (inv_main48 var10 var9 var8 var7 var6 var5 var4 var3 var2 var1 var0) (not (is-O_Int (readHeap var10 (nthAddrRange var7 var2))))) (is-O_Int (readHeap var10 (nthAddrRange var7 var2)))))))
(assert (forall ((var0 Int) (var1 Int) (var2 Int) (var3 Int) (var4 Int) (var5 Int) (var6 AddrRange) (var7 AddrRange) (var8 Int) (var9 Heap)) (not (and (inv_main55 var9 var8 var7 var6 var5 var4 var3 var2 var1 var0) (not (is-O_Int (readHeap var9 (nthAddrRange var7 var5))))))))
(assert (forall ((var0 Int) (var1 Int) (var2 Int) (var3 Int) (var4 Int) (var5 Int) (var6 AddrRange) (var7 AddrRange) (var8 Int) (var9 Heap)) (not (and (and (inv_main55 var9 var8 var7 var6 var5 var4 var3 var2 var1 var0) (not (withinHeap var7 (nthAddrRange var7 var5)))) (is-O_Int (readHeap var9 (nthAddrRange var7 var5)))))))
(assert (forall ((var0 Int) (var1 Int) (var2 Int) (var3 Int) (var4 Int) (var5 Int) (var6 Int) (var7 AddrRange) (var8 AddrRange) (var9 Int) (var10 Heap)) (not (and (inv_main57 var10 var9 var8 var7 var6 var5 var4 var3 var2 var1 var0) (not (is-O_Int (readHeap var10 (nthAddrRange var7 var6))))))))
(assert (forall ((var0 Int) (var1 Int) (var2 Int) (var3 Int) (var4 Int) (var5 Int) (var6 Int) (var7 AddrRange) (var8 AddrRange) (var9 Int) (var10 Heap)) (not (and (and (inv_main57 var10 var9 var8 var7 var6 var5 var4 var3 var2 var1 var0) (not (withinHeap var7 (nthAddrRange var7 var6)))) (is-O_Int (readHeap var10 (nthAddrRange var7 var6)))))))
(assert (forall ((var0 Int) (var1 Int) (var2 Int) (var3 Int) (var4 Int) (var5 Int) (var6 AddrRange) (var7 AddrRange) (var8 Int) (var9 Heap)) (not (and (inv_main53 var9 var8 var7 var6 var5 var4 var3 var2 var1 var0) (not (= var3 0))))))
(check-sat)
